p tw 133 153
1 2
2 46
3 38
4 5
4 34
5 6
6 7
7 8
8 9
9 10
10 34
11 12
12 13
13 15
14 25
15 16
15 34
16 17
17 18
17 32
18 19
19 20
20 21
21 22
22 23
22 30
23 24
24 26
25 36
26 27
27 28
28 29
29 20
30 31
31 32
32 33
33 34
34 35
35 37
36 40
37 38
38 39
40 41
41 42
42 43
43 44
44 45
45 47
46 57
47 48
48 49
49 50
50 51
51 52
52 53
53 54
54 55
55 56
56 58
57 68
58 59
59 60
60 61
60 117
61 62
62 63
62 95
63 64
64 65
64 111
65 66
66 67
66 104
67 69
68 79
69 70
69 83
70 71
71 72
72 73
72 78
73 74
74 75
74 92
75 76
76 77
76 95
77 122
78 80
79 90
79 14
80 81
80 34
81 82
82 34
83 84
84 85
85 86
86 87
86 34
87 88
88 89
88 34
89 91
90 101
91 34
92 93
93 94
94 34
95 96
96 97
97 98
98 99
99 100
100 102
100 34
101 112
102 103
103 34
104 105
105 106
106 107
107 108
108 109
109 110
110 34
111 113
112 123
113 114
114 115
115 116
116 34
117 118
118 119
119 120
120 121
121 34
122 124
123 3
123 14
124 125
125 126
126 127
126 11
127 128
128 129
128 133
129 130
130 131
130 133
131 132
132 34
133 4
